(set-logic QF_S)
(declare-fun var0 () Int)
(declare-fun var1 () Int)
(declare-fun var2 () String)
(declare-fun var3 () Int)
(declare-fun var4 () String)
(declare-fun var5 () Int)
(declare-fun var6 () String)
(declare-fun var7 () String)
(assert (>= var0 var1))
(assert (str.suffixof (str.at var2 var3) (str.substr var4 var5 var5)))
(assert (not (not (< var0 var3))))
(assert (<= (str.len var6) (str.to.int var7)))
(check-sat)